(declare-const |phi_tmp___3:18:21:76:81| Int)
(declare-const |K:69:70:73:78| Int)
(declare-const havoc Int)
(declare-const |x':64:71:74:79| Int)
(declare-const |phi_tmp___3:22:77:82| Int)
(declare-const |z':65:72:75:80| Int)
(declare-const |havoc:2| Int)
(assert (and (< (+ (- havoc) -100) 0) (< (+ havoc -200) 0)
               (< (+ (- |havoc:2|) 100) 0) (< (+ |havoc:2| -200) 0)
               (or (not (<= (- |K:69:70:73:78|) 0))
                     (= (+ (* -2 |z':65:72:75:80|) |x':64:71:74:79|
                             (- |K:69:70:73:78|) (* 2 |havoc:2|) (- havoc)) 0))
               (or (not (<= (- |K:69:70:73:78|) 0))
                     (<= (+ |z':65:72:75:80| (- |havoc:2|)) 0))
               (or (not (<= (- |K:69:70:73:78|) 0))
                     (<= (+ (- |z':65:72:75:80|) (- |K:69:70:73:78|)
                              |havoc:2|) 0))
               (or (and (= |K:69:70:73:78| 0)
                          (= (+ (- |z':65:72:75:80|) |havoc:2|) 0)
                          (= (+ (- |x':64:71:74:79|) havoc) 0))
                     (and (<= (+ (- |K:69:70:73:78|) 1) 0)
                            (<= (+ havoc -99) 0) (<= (+ (- |havoc:2|) 101) 0)
                            (<= (+ |x':64:71:74:79| -100) 0)
                            (<= (+ (* -2 |z':65:72:75:80|) |x':64:71:74:79|
                                     102) 0)
                            (<= (+ (- |z':65:72:75:80|) 100) 0)))
               (<= (- |K:69:70:73:78|) 0) (<= (- |z':65:72:75:80|) 0)
               (or (<= (+ (- |x':64:71:74:79|) 100) 0)
                     (and (< (+ |x':64:71:74:79| -100) 0)
                            (<= (+ |z':65:72:75:80| -100) 0)))
               (or (and (< (+ |x':64:71:74:79| -100) 0)
                          (or (and (< (+ (- |z':65:72:75:80|) 100) 0)
                                     (= (- |phi_tmp___3:18:21:76:81|) 0))
                                (and (<= (+ |z':65:72:75:80| -100) 0)
                                       (= (+ (- |phi_tmp___3:18:21:76:81|) 1) 0)))
                          (= (+ (- |phi_tmp___3:22:77:82|)
                                  |phi_tmp___3:18:21:76:81|) 0))
                     (and (<= (+ (- |x':64:71:74:79|) 100) 0)
                            (= (+ (- |phi_tmp___3:22:77:82|) 1) 0)))
               (= |phi_tmp___3:22:77:82| 0)))
(check-sat)
